p cnf 7230 17
-2932 -2933 0
-415 -2694 -2928 0
-1668 -2354 -2926 0
415 -2929 0
1668 -2927 0
2930 2931 0
2228 -2931 0
-2228 -2930 0
2928 2929 0
2926 2927 0
2694 -2929 0
2354 -2927 0
-417 -2700 2933 0
2924 2925 0
-2924 -2925 0
2700 -2933 0
417 -2933 0
